p cnf 20 11
e 1 2 0
a 3 0
e 4 5 6 0
a 7 8 9 0
e 10 0
a 11 0
e 12 0
a 13 0
e 14 0
a 15 16 0
e 17 0
a 18 0
e 19 0
a 20 0
-13 -14 19 11 0
-13 -14 0
-6 17 8 20 0
1 -20 3 0
18 9 -2 -10 0
-20 -9 4 7 -8 0
-1 -14 6 12 -8 0
-19 -17 0
13 5 12 0
-11 -3 0
-20 12 3 -4 -11 0
